StudentsNr = 10;
InstructorsNr = 53;
DaysNr = 1;
SlotsPerDay = 40;
AvailabilitySlotsLenght = 10;
RoomNr = 1;
ProgrammNr = 2;
DegreeNr = 3;
RolesNr = 1;
CoursesNr = 8;
InstructorsProgramm = [{1, 2}, {2}, {2}, {1}, {1}, {1, 2}, {2}, {1}, {1}, {2}, {2}, {2}, {1, 2}, {2}, {2}, {2}, {2}, {2}, {1}, {1, 2}, {1, 2}, {2}, {1}, {2}, {1}, {1}, {2}, {2}, {2}, {1, 2}, {2}, {1}, {1}, {2}, {1, 2}, {2}, {1, 2}, {1}, {2}, {2}, {1}, {1}, {1}, {1}, {1, 2}, {1}, {2}, {2}, {1}, {2}, {1, 2}, {2}, {2}];
InstructorRolesPerProgramm = [|{1, 4, 6, 8, 9, 13, 20, 30, 35, 45, 46}|{1, 6, 7, 10, 12, 13, 14, 15, 20, 22, 24, 28, 30, 31, 35, 40, 45, 47, 48, 50, 53}|];
InstructorsAvailability = [|0, 1, 1, 1, |1, 1, 1, 0, |1, 1, 1, 1, |1, 1, 1, 1, |0, 0, 0, 1, |1, 1, 1, 1, |0, 1, 1, 1, |1, 1, 1, 1, |1, 1, 1, 1, |1, 1, 0, 0, |0, 1, 0, 0, |1, 1, 0, 0, |0, 0, 0, 1, |0, 1, 1, 1, |0, 1, 1, 1, |0, 1, 1, 0, |0, 1, 1, 0, |1, 0, 1, 1, |1, 1, 1, 1, |1, 1, 1, 1, |0, 0, 1, 1, |0, 0, 1, 1, |0, 0, 1, 1, |0, 0, 1, 1, |0, 1, 0, 1, |1, 1, 0, 1, |0, 1, 1, 1, |1, 1, 1, 0, |1, 1, 1, 1, |1, 1, 1, 0, |1, 1, 0, 0, |1, 1, 1, 1, |1, 1, 1, 0, |1, 0, 0, 0, |0, 1, 0, 1, |0, 1, 1, 1, |1, 1, 0, 0, |0, 0, 0, 1, |1, 1, 1, 1, |1, 1, 1, 1, |1, 1, 1, 1, |0, 1, 1, 1, |0, 1, 1, 1, |1, 1, 1, 1, |1, 1, 1, 1, |0, 1, 1, 1, |0, 0, 1, 1, |0, 1, 1, 1, |1, 1, 1, 0, |0, 1, 1, 1, |0, 1, 1, 1, |0, 1, 0, 1, |1, 1, 1, 1|];
StudentsProgramm = [2, 1, 1, 2, 2, 2, 2, 1, 2, 1];
StudentsDegree = [1, 3, 1, 1, 1, 1, 3, 1, 1, 2];
StudentsSupervisorId = [14, 25, 4, 47, 51, 34, 28, 4, 13, 25];
StudentsCourseIds = [{}, {1, 2, 3, 4, 5, 7, 8}, {}, {}, {}, {}, {1, 2, 3, 5, 6, 7, 8}, {}, {}, {2, 3, 4, 5, 6, 7, 8}];
StudentsAvailability = [|0, 1, 0, 1, |0, 1, 1, 0, |1, 1, 1, 1, |0, 0, 1, 1, |0, 0, 1, 1, |1, 1, 1, 1, |0, 0, 0, 1, |1, 1, 1, 1, |1, 1, 1, 1, |0, 1, 1, 1|];
TheoryticalMinCard = [0, 3, 0, 0, 1, 1, 2, 0, 0, 2];
CoursesInstructorIds = [{1, 3, 4, 7, 8, 9, 11, 15, 16, 17, 18, 19, 20, 21, 22, 23, 24, 26, 27, 31, 32, 33, 34, 36, 38, 40, 41, 43, 45, 48, 49, 50, 51, 52, 53}, {5, 11, 34}, {2, 8, 10, 13, 21, 24, 28, 33, 36, 38, 41}, {4, 6, 10, 11, 15, 23, 32, 34, 37, 38, 39, 43, 44, 46}, {33, 35, 47}, {3, 5, 25, 36, 38, 46, 48}, {17, 20, 29, 30, 33, 35, 37, 45, 49, 50}, {5}];
RolesDemands = [4];
RolesContinuity = [];
ExamLen = [1, 2, 1, 1, 1, 1, 2, 1, 1, 1];
LunchTsMinLen = 0;
LunchStarts = [12..28];
SupervisorAvailable = 5;
OptimalLunchLenght = [3, 0];
OptimalStartTs = [2, 0];
OptimalFinishTs = [2, 40];
MinimizeRooms = 300;
RolesSoftContinuity = [|1|3|];
SameDegreeInRoom = 20;
Mergeability = 2;
